data/lp_files/q3/105_2.lp
\ Model foo
\ LP format - for model browsing. Use MPS format to capture full model detail.
Minimize
  z
Subject To
 allocateEach[1]: x[1,1] + x[2,1] + x[3,1] + x[4,1] + x[5,1] + x[6,1] = 1
 allocateEach[2]: x[1,2] + x[2,2] + x[3,2] + x[4,2] + x[5,2] + x[6,2] = 1
 allocateEach[3]: x[1,3] + x[2,3] + x[3,3] + x[4,3] + x[5,3] + x[6,3] = 1
 allocateEach[4]: x[1,4] + x[2,4] + x[3,4] + x[4,4] + x[5,4] + x[6,4] = 1
 allocateEach[5]: x[1,5] + x[2,5] + x[3,5] + x[4,5] + x[5,5] + x[6,5] = 1
 allocateAllCash: cashProportion[1] + cashProportion[2] + cashProportion[3]
   + cashProportion[4] + cashProportion[5] + cashProportion[6] = 1
 findWorstP[1,2]: z + 0.0887836638058597 cashProportion[1]
   - 0.0887836638058597 cashProportion[2] + 0.0147380881917727 x[1,1]
   + 0.2935779816513762 x[1,2] + 0.073453684522048 x[1,3]
   + 0.2117194436223735 x[1,4] + 0.3177271382065701 x[1,5]
   - 0.0147380881917727 x[2,1] - 0.2935779816513762 x[2,2]
   - 0.073453684522048 x[2,3] - 0.2117194436223735 x[2,4]
   - 0.3177271382065701 x[2,5] >= 0
 findWorstP[1,3]: z + 0.0887836638058597 cashProportion[1]
   - 0.0887836638058597 cashProportion[3] + 0.0147380881917727 x[1,1]
   + 0.2935779816513762 x[1,2] + 0.073453684522048 x[1,3]
   + 0.2117194436223735 x[1,4] + 0.3177271382065701 x[1,5]
   - 0.0147380881917727 x[3,1] - 0.2935779816513762 x[3,2]
   - 0.073453684522048 x[3,3] - 0.2117194436223735 x[3,4]
   - 0.3177271382065701 x[3,5] >= 0
 findWorstP[1,4]: z + 0.0887836638058597 cashProportion[1]
   - 0.0887836638058597 cashProportion[4] + 0.0147380881917727 x[1,1]
   + 0.2935779816513762 x[1,2] + 0.073453684522048 x[1,3]
   + 0.2117194436223735 x[1,4] + 0.3177271382065701 x[1,5]
   - 0.0147380881917727 x[4,1] - 0.2935779816513762 x[4,2]
   - 0.073453684522048 x[4,3] - 0.2117194436223735 x[4,4]
   - 0.3177271382065701 x[4,5] >= 0
 findWorstP[1,5]: z + 0.0887836638058597 cashProportion[1]
   - 0.0887836638058597 cashProportion[5] + 0.0147380881917727 x[1,1]
   + 0.2935779816513762 x[1,2] + 0.073453684522048 x[1,3]
   + 0.2117194436223735 x[1,4] + 0.3177271382065701 x[1,5]
   - 0.0147380881917727 x[5,1] - 0.2935779816513762 x[5,2]
   - 0.073453684522048 x[5,3] - 0.2117194436223735 x[5,4]
   - 0.3177271382065701 x[5,5] >= 0
 findWorstP[1,6]: z + 0.0887836638058597 cashProportion[1]
   - 0.0887836638058597 cashProportion[6] + 0.0147380881917727 x[1,1]
   + 0.2935779816513762 x[1,2] + 0.073453684522048 x[1,3]
   + 0.2117194436223735 x[1,4] + 0.3177271382065701 x[1,5]
   - 0.0147380881917727 x[6,1] - 0.2935779816513762 x[6,2]
   - 0.073453684522048 x[6,3] - 0.2117194436223735 x[6,4]
   - 0.3177271382065701 x[6,5] >= 0
 findWorstP[2,1]: z - 0.057641317296238 cashProportion[1]
   + 0.057641317296238 cashProportion[2] - 0.0894208968988971 x[1,1]
   - 0.328248088229643 x[1,2] - 0.0258617376935788 x[1,3]
   - 0.2571571302309495 x[1,4] - 0.2416708296506936 x[1,5]
   + 0.0894208968988971 x[2,1] + 0.328248088229643 x[2,2]
   + 0.0258617376935788 x[2,3] + 0.2571571302309495 x[2,4]
   + 0.2416708296506936 x[2,5] >= 0
 findWorstP[2,3]: z + 0.057641317296238 cashProportion[2]
   - 0.057641317296238 cashProportion[3] + 0.0894208968988971 x[2,1]
   + 0.328248088229643 x[2,2] + 0.0258617376935788 x[2,3]
   + 0.2571571302309495 x[2,4] + 0.2416708296506936 x[2,5]
   - 0.0894208968988971 x[3,1] - 0.328248088229643 x[3,2]
   - 0.0258617376935788 x[3,3] - 0.2571571302309495 x[3,4]
   - 0.2416708296506936 x[3,5] >= 0
 findWorstP[2,4]: z + 0.057641317296238 cashProportion[2]
   - 0.057641317296238 cashProportion[4] + 0.0894208968988971 x[2,1]
   + 0.328248088229643 x[2,2] + 0.0258617376935788 x[2,3]
   + 0.2571571302309495 x[2,4] + 0.2416708296506936 x[2,5]
   - 0.0894208968988971 x[4,1] - 0.328248088229643 x[4,2]
   - 0.0258617376935788 x[4,3] - 0.2571571302309495 x[4,4]
   - 0.2416708296506936 x[4,5] >= 0
 findWorstP[2,5]: z + 0.057641317296238 cashProportion[2]
   - 0.057641317296238 cashProportion[5] + 0.0894208968988971 x[2,1]
   + 0.328248088229643 x[2,2] + 0.0258617376935788 x[2,3]
   + 0.2571571302309495 x[2,4] + 0.2416708296506936 x[2,5]
   - 0.0894208968988971 x[5,1] - 0.328248088229643 x[5,2]
   - 0.0258617376935788 x[5,3] - 0.2571571302309495 x[5,4]
   - 0.2416708296506936 x[5,5] >= 0
 findWorstP[2,6]: z + 0.057641317296238 cashProportion[2]
   - 0.057641317296238 cashProportion[6] + 0.0894208968988971 x[2,1]
   + 0.328248088229643 x[2,2] + 0.0258617376935788 x[2,3]
   + 0.2571571302309495 x[2,4] + 0.2416708296506936 x[2,5]
   - 0.0894208968988971 x[6,1] - 0.328248088229643 x[6,2]
   - 0.0258617376935788 x[6,3] - 0.2571571302309495 x[6,4]
   - 0.2416708296506936 x[6,5] >= 0
 findWorstP[3,1]: z - 0.0544346058934533 cashProportion[1]
   + 0.0544346058934533 cashProportion[3] - 0.1386267963419945 x[1,1]
   - 0.209899840325156 x[1,2] - 0.2568587603425751 x[1,3]
   - 0.2974669763390913 x[1,4] - 0.0427130207577297 x[1,5]
   + 0.1386267963419945 x[3,1] + 0.209899840325156 x[3,2]
   + 0.2568587603425751 x[3,3] + 0.2974669763390913 x[3,4]
   + 0.0427130207577297 x[3,5] >= 0
 findWorstP[3,2]: z - 0.0544346058934533 cashProportion[2]
   + 0.0544346058934533 cashProportion[3] - 0.1386267963419945 x[2,1]
   - 0.209899840325156 x[2,2] - 0.2568587603425751 x[2,3]
   - 0.2974669763390913 x[2,4] - 0.0427130207577297 x[2,5]
   + 0.1386267963419945 x[3,1] + 0.209899840325156 x[3,2]
   + 0.2568587603425751 x[3,3] + 0.2974669763390913 x[3,4]
   + 0.0427130207577297 x[3,5] >= 0
 findWorstP[3,4]: z + 0.0544346058934533 cashProportion[3]
   - 0.0544346058934533 cashProportion[4] + 0.1386267963419945 x[3,1]
   + 0.209899840325156 x[3,2] + 0.2568587603425751 x[3,3]
   + 0.2974669763390913 x[3,4] + 0.0427130207577297 x[3,5]
   - 0.1386267963419945 x[4,1] - 0.209899840325156 x[4,2]
   - 0.2568587603425751 x[4,3] - 0.2974669763390913 x[4,4]
   - 0.0427130207577297 x[4,5] >= 0
 findWorstP[3,5]: z + 0.0544346058934533 cashProportion[3]
   - 0.0544346058934533 cashProportion[5] + 0.1386267963419945 x[3,1]
   + 0.209899840325156 x[3,2] + 0.2568587603425751 x[3,3]
   + 0.2974669763390913 x[3,4] + 0.0427130207577297 x[3,5]
   - 0.1386267963419945 x[5,1] - 0.209899840325156 x[5,2]
   - 0.2568587603425751 x[5,3] - 0.2974669763390913 x[5,4]
   - 0.0427130207577297 x[5,5] >= 0
 findWorstP[3,6]: z + 0.0544346058934533 cashProportion[3]
   - 0.0544346058934533 cashProportion[6] + 0.1386267963419945 x[3,1]
   + 0.209899840325156 x[3,2] + 0.2568587603425751 x[3,3]
   + 0.2974669763390913 x[3,4] + 0.0427130207577297 x[3,5]
   - 0.1386267963419945 x[6,1] - 0.209899840325156 x[6,2]
   - 0.2568587603425751 x[6,3] - 0.2974669763390913 x[6,4]
   - 0.0427130207577297 x[6,5] >= 0
 findWorstP[4,1]: z - 0.0753428097845196 cashProportion[1]
   + 0.0753428097845196 cashProportion[4] - 0.0540459088854287 x[1,1]
   - 0.1638454970114019 x[1,2] - 0.1187402682204028 x[1,3]
   - 0.1306946607062133 x[1,4] - 0.4573308553920338 x[1,5]
   + 0.0540459088854287 x[4,1] + 0.1638454970114019 x[4,2]
   + 0.1187402682204028 x[4,3] + 0.1306946607062133 x[4,4]
   + 0.4573308553920338 x[4,5] >= 0
 findWorstP[4,2]: z - 0.0753428097845196 cashProportion[2]
   + 0.0753428097845196 cashProportion[4] - 0.0540459088854287 x[2,1]
   - 0.1638454970114019 x[2,2] - 0.1187402682204028 x[2,3]
   - 0.1306946607062133 x[2,4] - 0.4573308553920338 x[2,5]
   + 0.0540459088854287 x[4,1] + 0.1638454970114019 x[4,2]
   + 0.1187402682204028 x[4,3] + 0.1306946607062133 x[4,4]
   + 0.4573308553920338 x[4,5] >= 0
 findWorstP[4,3]: z - 0.0753428097845196 cashProportion[3]
   + 0.0753428097845196 cashProportion[4] - 0.0540459088854287 x[3,1]
   - 0.1638454970114019 x[3,2] - 0.1187402682204028 x[3,3]
   - 0.1306946607062133 x[3,4] - 0.4573308553920338 x[3,5]
   + 0.0540459088854287 x[4,1] + 0.1638454970114019 x[4,2]
   + 0.1187402682204028 x[4,3] + 0.1306946607062133 x[4,4]
   + 0.4573308553920338 x[4,5] >= 0
 findWorstP[4,5]: z + 0.0753428097845196 cashProportion[4]
   - 0.0753428097845196 cashProportion[5] + 0.0540459088854287 x[4,1]
   + 0.1638454970114019 x[4,2] + 0.1187402682204028 x[4,3]
   + 0.1306946607062133 x[4,4] + 0.4573308553920338 x[4,5]
   - 0.0540459088854287 x[5,1] - 0.1638454970114019 x[5,2]
   - 0.1187402682204028 x[5,3] - 0.1306946607062133 x[5,4]
   - 0.4573308553920338 x[5,5] >= 0
 findWorstP[4,6]: z + 0.0753428097845196 cashProportion[4]
   - 0.0753428097845196 cashProportion[6] + 0.0540459088854287 x[4,1]
   + 0.1638454970114019 x[4,2] + 0.1187402682204028 x[4,3]
   + 0.1306946607062133 x[4,4] + 0.4573308553920338 x[4,5]
   - 0.0540459088854287 x[6,1] - 0.1638454970114019 x[6,2]
   - 0.1187402682204028 x[6,3] - 0.1306946607062133 x[6,4]
   - 0.4573308553920338 x[6,5] >= 0
 findWorstP[5,1]: z - 0.0396772913635763 cashProportion[1]
   + 0.0396772913635763 cashProportion[5] - 0.2136754397566459 x[1,1]
   - 0.1844465017854781 x[1,2] - 0.2089670678481682 x[1,3]
   - 0.1670942996958074 x[1,4] - 0.186139399550324 x[1,5]
   + 0.2136754397566459 x[5,1] + 0.1844465017854781 x[5,2]
   + 0.2089670678481682 x[5,3] + 0.1670942996958074 x[5,4]
   + 0.186139399550324 x[5,5] >= 0
 findWorstP[5,2]: z - 0.0396772913635763 cashProportion[2]
   + 0.0396772913635763 cashProportion[5] - 0.2136754397566459 x[2,1]
   - 0.1844465017854781 x[2,2] - 0.2089670678481682 x[2,3]
   - 0.1670942996958074 x[2,4] - 0.186139399550324 x[2,5]
   + 0.2136754397566459 x[5,1] + 0.1844465017854781 x[5,2]
   + 0.2089670678481682 x[5,3] + 0.1670942996958074 x[5,4]
   + 0.186139399550324 x[5,5] >= 0
 findWorstP[5,3]: z - 0.0396772913635763 cashProportion[3]
   + 0.0396772913635763 cashProportion[5] - 0.2136754397566459 x[3,1]
   - 0.1844465017854781 x[3,2] - 0.2089670678481682 x[3,3]
   - 0.1670942996958074 x[3,4] - 0.186139399550324 x[3,5]
   + 0.2136754397566459 x[5,1] + 0.1844465017854781 x[5,2]
   + 0.2089670678481682 x[5,3] + 0.1670942996958074 x[5,4]
   + 0.186139399550324 x[5,5] >= 0
 findWorstP[5,4]: z - 0.0396772913635763 cashProportion[4]
   + 0.0396772913635763 cashProportion[5] - 0.2136754397566459 x[4,1]
   - 0.1844465017854781 x[4,2] - 0.2089670678481682 x[4,3]
   - 0.1670942996958074 x[4,4] - 0.186139399550324 x[4,5]
   + 0.2136754397566459 x[5,1] + 0.1844465017854781 x[5,2]
   + 0.2089670678481682 x[5,3] + 0.1670942996958074 x[5,4]
   + 0.186139399550324 x[5,5] >= 0
 findWorstP[5,6]: z + 0.0396772913635763 cashProportion[5]
   - 0.0396772913635763 cashProportion[6] + 0.2136754397566459 x[5,1]
   + 0.1844465017854781 x[5,2] + 0.2089670678481682 x[5,3]
   + 0.1670942996958074 x[5,4] + 0.186139399550324 x[5,5]
   - 0.2136754397566459 x[6,1] - 0.1844465017854781 x[6,2]
   - 0.2089670678481682 x[6,3] - 0.1670942996958074 x[6,4]
   - 0.186139399550324 x[6,5] >= 0
 findWorstP[6,1]: z - 0.0469674672010521 cashProportion[1]
   + 0.0469674672010521 cashProportion[6] - 0.1343895794846103 x[1,1]
   - 0.1908444750602749 x[1,2] - 0.1582803644675455 x[1,3]
   - 0.1918151360490966 x[1,4] - 0.2777029777374205 x[1,5]
   + 0.1343895794846103 x[6,1] + 0.1908444750602749 x[6,2]
   + 0.1582803644675455 x[6,3] + 0.1918151360490966 x[6,4]
   + 0.2777029777374205 x[6,5] >= 0
 findWorstP[6,2]: z - 0.0469674672010521 cashProportion[2]
   + 0.0469674672010521 cashProportion[6] - 0.1343895794846103 x[2,1]
   - 0.1908444750602749 x[2,2] - 0.1582803644675455 x[2,3]
   - 0.1918151360490966 x[2,4] - 0.2777029777374205 x[2,5]
   + 0.1343895794846103 x[6,1] + 0.1908444750602749 x[6,2]
   + 0.1582803644675455 x[6,3] + 0.1918151360490966 x[6,4]
   + 0.2777029777374205 x[6,5] >= 0
 findWorstP[6,3]: z - 0.0469674672010521 cashProportion[3]
   + 0.0469674672010521 cashProportion[6] - 0.1343895794846103 x[3,1]
   - 0.1908444750602749 x[3,2] - 0.1582803644675455 x[3,3]
   - 0.1918151360490966 x[3,4] - 0.2777029777374205 x[3,5]
   + 0.1343895794846103 x[6,1] + 0.1908444750602749 x[6,2]
   + 0.1582803644675455 x[6,3] + 0.1918151360490966 x[6,4]
   + 0.2777029777374205 x[6,5] >= 0
 findWorstP[6,4]: z - 0.0469674672010521 cashProportion[4]
   + 0.0469674672010521 cashProportion[6] - 0.1343895794846103 x[4,1]
   - 0.1908444750602749 x[4,2] - 0.1582803644675455 x[4,3]
   - 0.1918151360490966 x[4,4] - 0.2777029777374205 x[4,5]
   + 0.1343895794846103 x[6,1] + 0.1908444750602749 x[6,2]
   + 0.1582803644675455 x[6,3] + 0.1918151360490966 x[6,4]
   + 0.2777029777374205 x[6,5] >= 0
 findWorstP[6,5]: z - 0.0469674672010521 cashProportion[5]
   + 0.0469674672010521 cashProportion[6] - 0.1343895794846103 x[5,1]
   - 0.1908444750602749 x[5,2] - 0.1582803644675455 x[5,3]
   - 0.1918151360490966 x[5,4] - 0.2777029777374205 x[5,5]
   + 0.1343895794846103 x[6,1] + 0.1908444750602749 x[6,2]
   + 0.1582803644675455 x[6,3] + 0.1918151360490966 x[6,4]
   + 0.2777029777374205 x[6,5] >= 0
Bounds
 z <= 1
 -infinity <= cashProportion[1] <= 1
 -infinity <= cashProportion[2] <= 1
 -infinity <= cashProportion[3] <= 1
 -infinity <= cashProportion[4] <= 1
 -infinity <= cashProportion[5] <= 1
 -infinity <= cashProportion[6] <= 1
Binaries
 x[1,1] x[1,2] x[1,3] x[1,4] x[1,5] x[2,1] x[2,2] x[2,3] x[2,4] x[2,5]
 x[3,1] x[3,2] x[3,3] x[3,4] x[3,5] x[4,1] x[4,2] x[4,3] x[4,4] x[4,5]
 x[5,1] x[5,2] x[5,3] x[5,4] x[5,5] x[6,1] x[6,2] x[6,3] x[6,4] x[6,5]
End
