data/mps_files/pEFS/105_2.mps
NAME foo
ROWS
 N  OBJ
 E  allocateEach[1]
 E  allocateEach[2]
 E  allocateEach[3]
 E  allocateEach[4]
 E  allocateEach[5]
 E  allocateAllCash
 G  findWorstP[1,2]
 G  findWorstP[1,3]
 G  findWorstP[1,4]
 G  findWorstP[1,5]
 G  findWorstP[1,6]
 G  findWorstP[2,1]
 G  findWorstP[2,3]
 G  findWorstP[2,4]
 G  findWorstP[2,5]
 G  findWorstP[2,6]
 G  findWorstP[3,1]
 G  findWorstP[3,2]
 G  findWorstP[3,4]
 G  findWorstP[3,5]
 G  findWorstP[3,6]
 G  findWorstP[4,1]
 G  findWorstP[4,2]
 G  findWorstP[4,3]
 G  findWorstP[4,5]
 G  findWorstP[4,6]
 G  findWorstP[5,1]
 G  findWorstP[5,2]
 G  findWorstP[5,3]
 G  findWorstP[5,4]
 G  findWorstP[5,6]
 G  findWorstP[6,1]
 G  findWorstP[6,2]
 G  findWorstP[6,3]
 G  findWorstP[6,4]
 G  findWorstP[6,5]
COLUMNS
    z         OBJ       1
    z         findWorstP[1,2]  1
    z         findWorstP[1,3]  1
    z         findWorstP[1,4]  1
    z         findWorstP[1,5]  1
    z         findWorstP[1,6]  1
    z         findWorstP[2,1]  1
    z         findWorstP[2,3]  1
    z         findWorstP[2,4]  1
    z         findWorstP[2,5]  1
    z         findWorstP[2,6]  1
    z         findWorstP[3,1]  1
    z         findWorstP[3,2]  1
    z         findWorstP[3,4]  1
    z         findWorstP[3,5]  1
    z         findWorstP[3,6]  1
    z         findWorstP[4,1]  1
    z         findWorstP[4,2]  1
    z         findWorstP[4,3]  1
    z         findWorstP[4,5]  1
    z         findWorstP[4,6]  1
    z         findWorstP[5,1]  1
    z         findWorstP[5,2]  1
    z         findWorstP[5,3]  1
    z         findWorstP[5,4]  1
    z         findWorstP[5,6]  1
    z         findWorstP[6,1]  1
    z         findWorstP[6,2]  1
    z         findWorstP[6,3]  1
    z         findWorstP[6,4]  1
    z         findWorstP[6,5]  1
    cashProportion[1]  allocateAllCash  1
    cashProportion[1]  findWorstP[1,2]  8.8783663805859739e-02
    cashProportion[1]  findWorstP[1,3]  8.8783663805859739e-02
    cashProportion[1]  findWorstP[1,4]  8.8783663805859739e-02
    cashProportion[1]  findWorstP[1,5]  8.8783663805859739e-02
    cashProportion[1]  findWorstP[1,6]  8.8783663805859739e-02
    cashProportion[1]  findWorstP[2,1]  -5.7641317296237955e-02
    cashProportion[1]  findWorstP[3,1]  -5.4434605893453336e-02
    cashProportion[1]  findWorstP[4,1]  -7.5342809784519571e-02
    cashProportion[1]  findWorstP[5,1]  -3.9677291363576256e-02
    cashProportion[1]  findWorstP[6,1]  -4.6967467201052070e-02
    cashProportion[2]  allocateAllCash  1
    cashProportion[2]  findWorstP[1,2]  -8.8783663805859739e-02
    cashProportion[2]  findWorstP[2,1]  5.7641317296237955e-02
    cashProportion[2]  findWorstP[2,3]  5.7641317296237955e-02
    cashProportion[2]  findWorstP[2,4]  5.7641317296237955e-02
    cashProportion[2]  findWorstP[2,5]  5.7641317296237955e-02
    cashProportion[2]  findWorstP[2,6]  5.7641317296237955e-02
    cashProportion[2]  findWorstP[3,2]  -5.4434605893453336e-02
    cashProportion[2]  findWorstP[4,2]  -7.5342809784519571e-02
    cashProportion[2]  findWorstP[5,2]  -3.9677291363576256e-02
    cashProportion[2]  findWorstP[6,2]  -4.6967467201052070e-02
    cashProportion[3]  allocateAllCash  1
    cashProportion[3]  findWorstP[1,3]  -8.8783663805859739e-02
    cashProportion[3]  findWorstP[2,3]  -5.7641317296237955e-02
    cashProportion[3]  findWorstP[3,1]  5.4434605893453336e-02
    cashProportion[3]  findWorstP[3,2]  5.4434605893453336e-02
    cashProportion[3]  findWorstP[3,4]  5.4434605893453336e-02
    cashProportion[3]  findWorstP[3,5]  5.4434605893453336e-02
    cashProportion[3]  findWorstP[3,6]  5.4434605893453336e-02
    cashProportion[3]  findWorstP[4,3]  -7.5342809784519571e-02
    cashProportion[3]  findWorstP[5,3]  -3.9677291363576256e-02
    cashProportion[3]  findWorstP[6,3]  -4.6967467201052070e-02
    cashProportion[4]  allocateAllCash  1
    cashProportion[4]  findWorstP[1,4]  -8.8783663805859739e-02
    cashProportion[4]  findWorstP[2,4]  -5.7641317296237955e-02
    cashProportion[4]  findWorstP[3,4]  -5.4434605893453336e-02
    cashProportion[4]  findWorstP[4,1]  7.5342809784519571e-02
    cashProportion[4]  findWorstP[4,2]  7.5342809784519571e-02
    cashProportion[4]  findWorstP[4,3]  7.5342809784519571e-02
    cashProportion[4]  findWorstP[4,5]  7.5342809784519571e-02
    cashProportion[4]  findWorstP[4,6]  7.5342809784519571e-02
    cashProportion[4]  findWorstP[5,4]  -3.9677291363576256e-02
    cashProportion[4]  findWorstP[6,4]  -4.6967467201052070e-02
    cashProportion[5]  allocateAllCash  1
    cashProportion[5]  findWorstP[1,5]  -8.8783663805859739e-02
    cashProportion[5]  findWorstP[2,5]  -5.7641317296237955e-02
    cashProportion[5]  findWorstP[3,5]  -5.4434605893453336e-02
    cashProportion[5]  findWorstP[4,5]  -7.5342809784519571e-02
    cashProportion[5]  findWorstP[5,1]  3.9677291363576256e-02
    cashProportion[5]  findWorstP[5,2]  3.9677291363576256e-02
    cashProportion[5]  findWorstP[5,3]  3.9677291363576256e-02
    cashProportion[5]  findWorstP[5,4]  3.9677291363576256e-02
    cashProportion[5]  findWorstP[5,6]  3.9677291363576256e-02
    cashProportion[5]  findWorstP[6,5]  -4.6967467201052070e-02
    cashProportion[6]  allocateAllCash  1
    cashProportion[6]  findWorstP[1,6]  -8.8783663805859739e-02
    cashProportion[6]  findWorstP[2,6]  -5.7641317296237955e-02
    cashProportion[6]  findWorstP[3,6]  -5.4434605893453336e-02
    cashProportion[6]  findWorstP[4,6]  -7.5342809784519571e-02
    cashProportion[6]  findWorstP[5,6]  -3.9677291363576256e-02
    cashProportion[6]  findWorstP[6,1]  4.6967467201052070e-02
    cashProportion[6]  findWorstP[6,2]  4.6967467201052070e-02
    cashProportion[6]  findWorstP[6,3]  4.6967467201052070e-02
    cashProportion[6]  findWorstP[6,4]  4.6967467201052070e-02
    cashProportion[6]  findWorstP[6,5]  4.6967467201052070e-02
    MARKER    'MARKER'                 'INTORG'
    x[1,1]    allocateEach[1]  1
    x[1,1]    findWorstP[1,2]  1.4738088191772714e-02
    x[1,1]    findWorstP[1,3]  1.4738088191772714e-02
    x[1,1]    findWorstP[1,4]  1.4738088191772714e-02
    x[1,1]    findWorstP[1,5]  1.4738088191772714e-02
    x[1,1]    findWorstP[1,6]  1.4738088191772714e-02
    x[1,1]    findWorstP[2,1]  -8.9420896898897123e-02
    x[1,1]    findWorstP[3,1]  -1.3862679634199448e-01
    x[1,1]    findWorstP[4,1]  -0.0540459088854287
    x[1,1]    findWorstP[5,1]  -2.1367543975664594e-01
    x[1,1]    findWorstP[6,1]  -1.3438957948461031e-01
    x[1,2]    allocateEach[2]  1
    x[1,2]    findWorstP[1,2]  2.9357798165137616e-01
    x[1,2]    findWorstP[1,3]  2.9357798165137616e-01
    x[1,2]    findWorstP[1,4]  2.9357798165137616e-01
    x[1,2]    findWorstP[1,5]  2.9357798165137616e-01
    x[1,2]    findWorstP[1,6]  2.9357798165137616e-01
    x[1,2]    findWorstP[2,1]  -0.328248088229643
    x[1,2]    findWorstP[3,1]  -2.0989984032515605e-01
    x[1,2]    findWorstP[4,1]  -1.6384549701140189e-01
    x[1,2]    findWorstP[5,1]  -1.8444650178547811e-01
    x[1,2]    findWorstP[6,1]  -1.9084447506027491e-01
    x[1,3]    allocateEach[3]  1
    x[1,3]    findWorstP[1,2]  7.3453684522047952e-02
    x[1,3]    findWorstP[1,3]  7.3453684522047952e-02
    x[1,3]    findWorstP[1,4]  7.3453684522047952e-02
    x[1,3]    findWorstP[1,5]  7.3453684522047952e-02
    x[1,3]    findWorstP[1,6]  7.3453684522047952e-02
    x[1,3]    findWorstP[2,1]  -2.5861737693578756e-02
    x[1,3]    findWorstP[3,1]  -2.5685876034257510e-01
    x[1,3]    findWorstP[4,1]  -1.1874026822040283e-01
    x[1,3]    findWorstP[5,1]  -2.0896706784816824e-01
    x[1,3]    findWorstP[6,1]  -1.5828036446754545e-01
    x[1,4]    allocateEach[4]  1
    x[1,4]    findWorstP[1,2]  2.1171944362237352e-01
    x[1,4]    findWorstP[1,3]  2.1171944362237352e-01
    x[1,4]    findWorstP[1,4]  2.1171944362237352e-01
    x[1,4]    findWorstP[1,5]  2.1171944362237352e-01
    x[1,4]    findWorstP[1,6]  2.1171944362237352e-01
    x[1,4]    findWorstP[2,1]  -2.5715713023094955e-01
    x[1,4]    findWorstP[3,1]  -2.9746697633909130e-01
    x[1,4]    findWorstP[4,1]  -1.3069466070621327e-01
    x[1,4]    findWorstP[5,1]  -1.6709429969580744e-01
    x[1,4]    findWorstP[6,1]  -1.9181513604909664e-01
    x[1,5]    allocateEach[5]  1
    x[1,5]    findWorstP[1,2]  3.1772713820657006e-01
    x[1,5]    findWorstP[1,3]  3.1772713820657006e-01
    x[1,5]    findWorstP[1,4]  3.1772713820657006e-01
    x[1,5]    findWorstP[1,5]  3.1772713820657006e-01
    x[1,5]    findWorstP[1,6]  3.1772713820657006e-01
    x[1,5]    findWorstP[2,1]  -2.4167082965069364e-01
    x[1,5]    findWorstP[3,1]  -4.2713020757729710e-02
    x[1,5]    findWorstP[4,1]  -4.5733085539203377e-01
    x[1,5]    findWorstP[5,1]  -1.8613939955032405e-01
    x[1,5]    findWorstP[6,1]  -2.7770297773742053e-01
    x[2,1]    allocateEach[1]  1
    x[2,1]    findWorstP[1,2]  -1.4738088191772714e-02
    x[2,1]    findWorstP[2,1]  8.9420896898897123e-02
    x[2,1]    findWorstP[2,3]  8.9420896898897123e-02
    x[2,1]    findWorstP[2,4]  8.9420896898897123e-02
    x[2,1]    findWorstP[2,5]  8.9420896898897123e-02
    x[2,1]    findWorstP[2,6]  8.9420896898897123e-02
    x[2,1]    findWorstP[3,2]  -1.3862679634199448e-01
    x[2,1]    findWorstP[4,2]  -0.0540459088854287
    x[2,1]    findWorstP[5,2]  -2.1367543975664594e-01
    x[2,1]    findWorstP[6,2]  -1.3438957948461031e-01
    x[2,2]    allocateEach[2]  1
    x[2,2]    findWorstP[1,2]  -2.9357798165137616e-01
    x[2,2]    findWorstP[2,1]  0.328248088229643
    x[2,2]    findWorstP[2,3]  0.328248088229643
    x[2,2]    findWorstP[2,4]  0.328248088229643
    x[2,2]    findWorstP[2,5]  0.328248088229643
    x[2,2]    findWorstP[2,6]  0.328248088229643
    x[2,2]    findWorstP[3,2]  -2.0989984032515605e-01
    x[2,2]    findWorstP[4,2]  -1.6384549701140189e-01
    x[2,2]    findWorstP[5,2]  -1.8444650178547811e-01
    x[2,2]    findWorstP[6,2]  -1.9084447506027491e-01
    x[2,3]    allocateEach[3]  1
    x[2,3]    findWorstP[1,2]  -7.3453684522047952e-02
    x[2,3]    findWorstP[2,1]  2.5861737693578756e-02
    x[2,3]    findWorstP[2,3]  2.5861737693578756e-02
    x[2,3]    findWorstP[2,4]  2.5861737693578756e-02
    x[2,3]    findWorstP[2,5]  2.5861737693578756e-02
    x[2,3]    findWorstP[2,6]  2.5861737693578756e-02
    x[2,3]    findWorstP[3,2]  -2.5685876034257510e-01
    x[2,3]    findWorstP[4,2]  -1.1874026822040283e-01
    x[2,3]    findWorstP[5,2]  -2.0896706784816824e-01
    x[2,3]    findWorstP[6,2]  -1.5828036446754545e-01
    x[2,4]    allocateEach[4]  1
    x[2,4]    findWorstP[1,2]  -2.1171944362237352e-01
    x[2,4]    findWorstP[2,1]  2.5715713023094955e-01
    x[2,4]    findWorstP[2,3]  2.5715713023094955e-01
    x[2,4]    findWorstP[2,4]  2.5715713023094955e-01
    x[2,4]    findWorstP[2,5]  2.5715713023094955e-01
    x[2,4]    findWorstP[2,6]  2.5715713023094955e-01
    x[2,4]    findWorstP[3,2]  -2.9746697633909130e-01
    x[2,4]    findWorstP[4,2]  -1.3069466070621327e-01
    x[2,4]    findWorstP[5,2]  -1.6709429969580744e-01
    x[2,4]    findWorstP[6,2]  -1.9181513604909664e-01
    x[2,5]    allocateEach[5]  1
    x[2,5]    findWorstP[1,2]  -3.1772713820657006e-01
    x[2,5]    findWorstP[2,1]  2.4167082965069364e-01
    x[2,5]    findWorstP[2,3]  2.4167082965069364e-01
    x[2,5]    findWorstP[2,4]  2.4167082965069364e-01
    x[2,5]    findWorstP[2,5]  2.4167082965069364e-01
    x[2,5]    findWorstP[2,6]  2.4167082965069364e-01
    x[2,5]    findWorstP[3,2]  -4.2713020757729710e-02
    x[2,5]    findWorstP[4,2]  -4.5733085539203377e-01
    x[2,5]    findWorstP[5,2]  -1.8613939955032405e-01
    x[2,5]    findWorstP[6,2]  -2.7770297773742053e-01
    x[3,1]    allocateEach[1]  1
    x[3,1]    findWorstP[1,3]  -1.4738088191772714e-02
    x[3,1]    findWorstP[2,3]  -8.9420896898897123e-02
    x[3,1]    findWorstP[3,1]  1.3862679634199448e-01
    x[3,1]    findWorstP[3,2]  1.3862679634199448e-01
    x[3,1]    findWorstP[3,4]  1.3862679634199448e-01
    x[3,1]    findWorstP[3,5]  1.3862679634199448e-01
    x[3,1]    findWorstP[3,6]  1.3862679634199448e-01
    x[3,1]    findWorstP[4,3]  -0.0540459088854287
    x[3,1]    findWorstP[5,3]  -2.1367543975664594e-01
    x[3,1]    findWorstP[6,3]  -1.3438957948461031e-01
    x[3,2]    allocateEach[2]  1
    x[3,2]    findWorstP[1,3]  -2.9357798165137616e-01
    x[3,2]    findWorstP[2,3]  -0.328248088229643
    x[3,2]    findWorstP[3,1]  2.0989984032515605e-01
    x[3,2]    findWorstP[3,2]  2.0989984032515605e-01
    x[3,2]    findWorstP[3,4]  2.0989984032515605e-01
    x[3,2]    findWorstP[3,5]  2.0989984032515605e-01
    x[3,2]    findWorstP[3,6]  2.0989984032515605e-01
    x[3,2]    findWorstP[4,3]  -1.6384549701140189e-01
    x[3,2]    findWorstP[5,3]  -1.8444650178547811e-01
    x[3,2]    findWorstP[6,3]  -1.9084447506027491e-01
    x[3,3]    allocateEach[3]  1
    x[3,3]    findWorstP[1,3]  -7.3453684522047952e-02
    x[3,3]    findWorstP[2,3]  -2.5861737693578756e-02
    x[3,3]    findWorstP[3,1]  2.5685876034257510e-01
    x[3,3]    findWorstP[3,2]  2.5685876034257510e-01
    x[3,3]    findWorstP[3,4]  2.5685876034257510e-01
    x[3,3]    findWorstP[3,5]  2.5685876034257510e-01
    x[3,3]    findWorstP[3,6]  2.5685876034257510e-01
    x[3,3]    findWorstP[4,3]  -1.1874026822040283e-01
    x[3,3]    findWorstP[5,3]  -2.0896706784816824e-01
    x[3,3]    findWorstP[6,3]  -1.5828036446754545e-01
    x[3,4]    allocateEach[4]  1
    x[3,4]    findWorstP[1,3]  -2.1171944362237352e-01
    x[3,4]    findWorstP[2,3]  -2.5715713023094955e-01
    x[3,4]    findWorstP[3,1]  2.9746697633909130e-01
    x[3,4]    findWorstP[3,2]  2.9746697633909130e-01
    x[3,4]    findWorstP[3,4]  2.9746697633909130e-01
    x[3,4]    findWorstP[3,5]  2.9746697633909130e-01
    x[3,4]    findWorstP[3,6]  2.9746697633909130e-01
    x[3,4]    findWorstP[4,3]  -1.3069466070621327e-01
    x[3,4]    findWorstP[5,3]  -1.6709429969580744e-01
    x[3,4]    findWorstP[6,3]  -1.9181513604909664e-01
    x[3,5]    allocateEach[5]  1
    x[3,5]    findWorstP[1,3]  -3.1772713820657006e-01
    x[3,5]    findWorstP[2,3]  -2.4167082965069364e-01
    x[3,5]    findWorstP[3,1]  4.2713020757729710e-02
    x[3,5]    findWorstP[3,2]  4.2713020757729710e-02
    x[3,5]    findWorstP[3,4]  4.2713020757729710e-02
    x[3,5]    findWorstP[3,5]  4.2713020757729710e-02
    x[3,5]    findWorstP[3,6]  4.2713020757729710e-02
    x[3,5]    findWorstP[4,3]  -4.5733085539203377e-01
    x[3,5]    findWorstP[5,3]  -1.8613939955032405e-01
    x[3,5]    findWorstP[6,3]  -2.7770297773742053e-01
    x[4,1]    allocateEach[1]  1
    x[4,1]    findWorstP[1,4]  -1.4738088191772714e-02
    x[4,1]    findWorstP[2,4]  -8.9420896898897123e-02
    x[4,1]    findWorstP[3,4]  -1.3862679634199448e-01
    x[4,1]    findWorstP[4,1]  0.0540459088854287
    x[4,1]    findWorstP[4,2]  0.0540459088854287
    x[4,1]    findWorstP[4,3]  0.0540459088854287
    x[4,1]    findWorstP[4,5]  0.0540459088854287
    x[4,1]    findWorstP[4,6]  0.0540459088854287
    x[4,1]    findWorstP[5,4]  -2.1367543975664594e-01
    x[4,1]    findWorstP[6,4]  -1.3438957948461031e-01
    x[4,2]    allocateEach[2]  1
    x[4,2]    findWorstP[1,4]  -2.9357798165137616e-01
    x[4,2]    findWorstP[2,4]  -0.328248088229643
    x[4,2]    findWorstP[3,4]  -2.0989984032515605e-01
    x[4,2]    findWorstP[4,1]  1.6384549701140189e-01
    x[4,2]    findWorstP[4,2]  1.6384549701140189e-01
    x[4,2]    findWorstP[4,3]  1.6384549701140189e-01
    x[4,2]    findWorstP[4,5]  1.6384549701140189e-01
    x[4,2]    findWorstP[4,6]  1.6384549701140189e-01
    x[4,2]    findWorstP[5,4]  -1.8444650178547811e-01
    x[4,2]    findWorstP[6,4]  -1.9084447506027491e-01
    x[4,3]    allocateEach[3]  1
    x[4,3]    findWorstP[1,4]  -7.3453684522047952e-02
    x[4,3]    findWorstP[2,4]  -2.5861737693578756e-02
    x[4,3]    findWorstP[3,4]  -2.5685876034257510e-01
    x[4,3]    findWorstP[4,1]  1.1874026822040283e-01
    x[4,3]    findWorstP[4,2]  1.1874026822040283e-01
    x[4,3]    findWorstP[4,3]  1.1874026822040283e-01
    x[4,3]    findWorstP[4,5]  1.1874026822040283e-01
    x[4,3]    findWorstP[4,6]  1.1874026822040283e-01
    x[4,3]    findWorstP[5,4]  -2.0896706784816824e-01
    x[4,3]    findWorstP[6,4]  -1.5828036446754545e-01
    x[4,4]    allocateEach[4]  1
    x[4,4]    findWorstP[1,4]  -2.1171944362237352e-01
    x[4,4]    findWorstP[2,4]  -2.5715713023094955e-01
    x[4,4]    findWorstP[3,4]  -2.9746697633909130e-01
    x[4,4]    findWorstP[4,1]  1.3069466070621327e-01
    x[4,4]    findWorstP[4,2]  1.3069466070621327e-01
    x[4,4]    findWorstP[4,3]  1.3069466070621327e-01
    x[4,4]    findWorstP[4,5]  1.3069466070621327e-01
    x[4,4]    findWorstP[4,6]  1.3069466070621327e-01
    x[4,4]    findWorstP[5,4]  -1.6709429969580744e-01
    x[4,4]    findWorstP[6,4]  -1.9181513604909664e-01
    x[4,5]    allocateEach[5]  1
    x[4,5]    findWorstP[1,4]  -3.1772713820657006e-01
    x[4,5]    findWorstP[2,4]  -2.4167082965069364e-01
    x[4,5]    findWorstP[3,4]  -4.2713020757729710e-02
    x[4,5]    findWorstP[4,1]  4.5733085539203377e-01
    x[4,5]    findWorstP[4,2]  4.5733085539203377e-01
    x[4,5]    findWorstP[4,3]  4.5733085539203377e-01
    x[4,5]    findWorstP[4,5]  4.5733085539203377e-01
    x[4,5]    findWorstP[4,6]  4.5733085539203377e-01
    x[4,5]    findWorstP[5,4]  -1.8613939955032405e-01
    x[4,5]    findWorstP[6,4]  -2.7770297773742053e-01
    x[5,1]    allocateEach[1]  1
    x[5,1]    findWorstP[1,5]  -1.4738088191772714e-02
    x[5,1]    findWorstP[2,5]  -8.9420896898897123e-02
    x[5,1]    findWorstP[3,5]  -1.3862679634199448e-01
    x[5,1]    findWorstP[4,5]  -0.0540459088854287
    x[5,1]    findWorstP[5,1]  2.1367543975664594e-01
    x[5,1]    findWorstP[5,2]  2.1367543975664594e-01
    x[5,1]    findWorstP[5,3]  2.1367543975664594e-01
    x[5,1]    findWorstP[5,4]  2.1367543975664594e-01
    x[5,1]    findWorstP[5,6]  2.1367543975664594e-01
    x[5,1]    findWorstP[6,5]  -1.3438957948461031e-01
    x[5,2]    allocateEach[2]  1
    x[5,2]    findWorstP[1,5]  -2.9357798165137616e-01
    x[5,2]    findWorstP[2,5]  -0.328248088229643
    x[5,2]    findWorstP[3,5]  -2.0989984032515605e-01
    x[5,2]    findWorstP[4,5]  -1.6384549701140189e-01
    x[5,2]    findWorstP[5,1]  1.8444650178547811e-01
    x[5,2]    findWorstP[5,2]  1.8444650178547811e-01
    x[5,2]    findWorstP[5,3]  1.8444650178547811e-01
    x[5,2]    findWorstP[5,4]  1.8444650178547811e-01
    x[5,2]    findWorstP[5,6]  1.8444650178547811e-01
    x[5,2]    findWorstP[6,5]  -1.9084447506027491e-01
    x[5,3]    allocateEach[3]  1
    x[5,3]    findWorstP[1,5]  -7.3453684522047952e-02
    x[5,3]    findWorstP[2,5]  -2.5861737693578756e-02
    x[5,3]    findWorstP[3,5]  -2.5685876034257510e-01
    x[5,3]    findWorstP[4,5]  -1.1874026822040283e-01
    x[5,3]    findWorstP[5,1]  2.0896706784816824e-01
    x[5,3]    findWorstP[5,2]  2.0896706784816824e-01
    x[5,3]    findWorstP[5,3]  2.0896706784816824e-01
    x[5,3]    findWorstP[5,4]  2.0896706784816824e-01
    x[5,3]    findWorstP[5,6]  2.0896706784816824e-01
    x[5,3]    findWorstP[6,5]  -1.5828036446754545e-01
    x[5,4]    allocateEach[4]  1
    x[5,4]    findWorstP[1,5]  -2.1171944362237352e-01
    x[5,4]    findWorstP[2,5]  -2.5715713023094955e-01
    x[5,4]    findWorstP[3,5]  -2.9746697633909130e-01
    x[5,4]    findWorstP[4,5]  -1.3069466070621327e-01
    x[5,4]    findWorstP[5,1]  1.6709429969580744e-01
    x[5,4]    findWorstP[5,2]  1.6709429969580744e-01
    x[5,4]    findWorstP[5,3]  1.6709429969580744e-01
    x[5,4]    findWorstP[5,4]  1.6709429969580744e-01
    x[5,4]    findWorstP[5,6]  1.6709429969580744e-01
    x[5,4]    findWorstP[6,5]  -1.9181513604909664e-01
    x[5,5]    allocateEach[5]  1
    x[5,5]    findWorstP[1,5]  -3.1772713820657006e-01
    x[5,5]    findWorstP[2,5]  -2.4167082965069364e-01
    x[5,5]    findWorstP[3,5]  -4.2713020757729710e-02
    x[5,5]    findWorstP[4,5]  -4.5733085539203377e-01
    x[5,5]    findWorstP[5,1]  1.8613939955032405e-01
    x[5,5]    findWorstP[5,2]  1.8613939955032405e-01
    x[5,5]    findWorstP[5,3]  1.8613939955032405e-01
    x[5,5]    findWorstP[5,4]  1.8613939955032405e-01
    x[5,5]    findWorstP[5,6]  1.8613939955032405e-01
    x[5,5]    findWorstP[6,5]  -2.7770297773742053e-01
    x[6,1]    allocateEach[1]  1
    x[6,1]    findWorstP[1,6]  -1.4738088191772714e-02
    x[6,1]    findWorstP[2,6]  -8.9420896898897123e-02
    x[6,1]    findWorstP[3,6]  -1.3862679634199448e-01
    x[6,1]    findWorstP[4,6]  -0.0540459088854287
    x[6,1]    findWorstP[5,6]  -2.1367543975664594e-01
    x[6,1]    findWorstP[6,1]  1.3438957948461031e-01
    x[6,1]    findWorstP[6,2]  1.3438957948461031e-01
    x[6,1]    findWorstP[6,3]  1.3438957948461031e-01
    x[6,1]    findWorstP[6,4]  1.3438957948461031e-01
    x[6,1]    findWorstP[6,5]  1.3438957948461031e-01
    x[6,2]    allocateEach[2]  1
    x[6,2]    findWorstP[1,6]  -2.9357798165137616e-01
    x[6,2]    findWorstP[2,6]  -0.328248088229643
    x[6,2]    findWorstP[3,6]  -2.0989984032515605e-01
    x[6,2]    findWorstP[4,6]  -1.6384549701140189e-01
    x[6,2]    findWorstP[5,6]  -1.8444650178547811e-01
    x[6,2]    findWorstP[6,1]  1.9084447506027491e-01
    x[6,2]    findWorstP[6,2]  1.9084447506027491e-01
    x[6,2]    findWorstP[6,3]  1.9084447506027491e-01
    x[6,2]    findWorstP[6,4]  1.9084447506027491e-01
    x[6,2]    findWorstP[6,5]  1.9084447506027491e-01
    x[6,3]    allocateEach[3]  1
    x[6,3]    findWorstP[1,6]  -7.3453684522047952e-02
    x[6,3]    findWorstP[2,6]  -2.5861737693578756e-02
    x[6,3]    findWorstP[3,6]  -2.5685876034257510e-01
    x[6,3]    findWorstP[4,6]  -1.1874026822040283e-01
    x[6,3]    findWorstP[5,6]  -2.0896706784816824e-01
    x[6,3]    findWorstP[6,1]  1.5828036446754545e-01
    x[6,3]    findWorstP[6,2]  1.5828036446754545e-01
    x[6,3]    findWorstP[6,3]  1.5828036446754545e-01
    x[6,3]    findWorstP[6,4]  1.5828036446754545e-01
    x[6,3]    findWorstP[6,5]  1.5828036446754545e-01
    x[6,4]    allocateEach[4]  1
    x[6,4]    findWorstP[1,6]  -2.1171944362237352e-01
    x[6,4]    findWorstP[2,6]  -2.5715713023094955e-01
    x[6,4]    findWorstP[3,6]  -2.9746697633909130e-01
    x[6,4]    findWorstP[4,6]  -1.3069466070621327e-01
    x[6,4]    findWorstP[5,6]  -1.6709429969580744e-01
    x[6,4]    findWorstP[6,1]  1.9181513604909664e-01
    x[6,4]    findWorstP[6,2]  1.9181513604909664e-01
    x[6,4]    findWorstP[6,3]  1.9181513604909664e-01
    x[6,4]    findWorstP[6,4]  1.9181513604909664e-01
    x[6,4]    findWorstP[6,5]  1.9181513604909664e-01
    x[6,5]    allocateEach[5]  1
    x[6,5]    findWorstP[1,6]  -3.1772713820657006e-01
    x[6,5]    findWorstP[2,6]  -2.4167082965069364e-01
    x[6,5]    findWorstP[3,6]  -4.2713020757729710e-02
    x[6,5]    findWorstP[4,6]  -4.5733085539203377e-01
    x[6,5]    findWorstP[5,6]  -1.8613939955032405e-01
    x[6,5]    findWorstP[6,1]  2.7770297773742053e-01
    x[6,5]    findWorstP[6,2]  2.7770297773742053e-01
    x[6,5]    findWorstP[6,3]  2.7770297773742053e-01
    x[6,5]    findWorstP[6,4]  2.7770297773742053e-01
    x[6,5]    findWorstP[6,5]  2.7770297773742053e-01
    MARKER    'MARKER'                 'INTEND'
RHS
    RHS1      allocateEach[1]  1
    RHS1      allocateEach[2]  1
    RHS1      allocateEach[3]  1
    RHS1      allocateEach[4]  1
    RHS1      allocateEach[5]  1
    RHS1      allocateAllCash  1
BOUNDS
 UP BND1      z         1
 MI BND1      cashProportion[1]
 UP BND1      cashProportion[1]  1
 MI BND1      cashProportion[2]
 UP BND1      cashProportion[2]  1
 MI BND1      cashProportion[3]
 UP BND1      cashProportion[3]  1
 MI BND1      cashProportion[4]
 UP BND1      cashProportion[4]  1
 MI BND1      cashProportion[5]
 UP BND1      cashProportion[5]  1
 MI BND1      cashProportion[6]
 UP BND1      cashProportion[6]  1
 BV BND1      x[1,1]  
 BV BND1      x[1,2]  
 BV BND1      x[1,3]  
 BV BND1      x[1,4]  
 BV BND1      x[1,5]  
 BV BND1      x[2,1]  
 BV BND1      x[2,2]  
 BV BND1      x[2,3]  
 BV BND1      x[2,4]  
 BV BND1      x[2,5]  
 BV BND1      x[3,1]  
 BV BND1      x[3,2]  
 BV BND1      x[3,3]  
 BV BND1      x[3,4]  
 BV BND1      x[3,5]  
 BV BND1      x[4,1]  
 BV BND1      x[4,2]  
 BV BND1      x[4,3]  
 BV BND1      x[4,4]  
 BV BND1      x[4,5]  
 BV BND1      x[5,1]  
 BV BND1      x[5,2]  
 BV BND1      x[5,3]  
 BV BND1      x[5,4]  
 BV BND1      x[5,5]  
 BV BND1      x[6,1]  
 BV BND1      x[6,2]  
 BV BND1      x[6,3]  
 BV BND1      x[6,4]  
 BV BND1      x[6,5]  
ENDATA
